\ LP format - for model browsing. Use MPS format to capture full model detail.
Maximize
obj:   x[1] + x[28] + x[37] + x[40] + x[55] + x[136] + x[145] + x[148] + x[163]
   + x[172] + x[181] + x[184] + x[199] + x[352] + x[2] + x[29] + x[43]
   + x[46] + x[58] + x[151] + x[154] + x[166] + x[187] + x[190] + x[202]
   + x[208] + x[244] + x[355] + x[3] + x[30] + x[49] + x[52] + x[61]
   + x[157] + x[160] + x[169] + x[193] + x[196] + x[205] + x[280] + x[316]
   + x[358] + x[4] + x[31] + x[44] + x[50] + x[56] + x[139] + x[175]
   + x[223] + x[229] + x[235] + x[259] + x[265] + x[271] + x[361] + x[5]
   + x[32] + x[38] + x[53] + x[59] + x[211] + x[217] + x[232] + x[238]
   + x[247] + x[253] + x[268] + x[274] + x[364] + x[6] + x[33] + x[41]
   + x[47] + x[62] + x[220] + x[226] + x[241] + x[256] + x[262] + x[277]
   + x[283] + x[319] + x[367] + x[7] + x[34] + x[48] + x[54] + x[57]
   + x[142] + x[178] + x[298] + x[304] + x[307] + x[334] + x[340] + x[343]
   + x[370] + x[8] + x[35] + x[42] + x[51] + x[60] + x[214] + x[250]
   + x[292] + x[301] + x[310] + x[328] + x[337] + x[346] + x[373] + x[9]
   + x[36] + x[39] + x[45] + x[63] + x[286] + x[289] + x[295] + x[313]
   + x[322] + x[325] + x[331] + x[349] + x[376] + x[10] + x[64] + x[73]
   + x[76] + x[91] + x[209] + x[218] + x[221] + x[236] + x[281] + x[290]
   + x[293] + x[308] + x[353] + x[11] + x[65] + x[79] + x[82] + x[94]
   + x[137] + x[224] + x[227] + x[239] + x[296] + x[299] + x[311] + x[317]
   + x[356] + x[12] + x[66] + x[85] + x[88] + x[97] + x[173] + x[230]
   + x[233] + x[242] + x[245] + x[302] + x[305] + x[314] + x[359] + x[13]
   + x[67] + x[80] + x[86] + x[92] + x[152] + x[158] + x[164] + x[212]
   + x[284] + x[332] + x[338] + x[344] + x[362] + x[14] + x[68] + x[74]
   + x[89] + x[95] + x[140] + x[146] + x[161] + x[167] + x[320] + x[326]
   + x[341] + x[347] + x[365] + x[15] + x[69] + x[77] + x[83] + x[98]
   + x[149] + x[155] + x[170] + x[176] + x[248] + x[329] + x[335] + x[350]
   + x[368] + x[16] + x[70] + x[84] + x[90] + x[93] + x[191] + x[197]
   + x[200] + x[215] + x[263] + x[269] + x[272] + x[287] + x[371] + x[17]
   + x[71] + x[78] + x[87] + x[96] + x[143] + x[185] + x[194] + x[203]
   + x[257] + x[266] + x[275] + x[323] + x[374] + x[18] + x[72] + x[75]
   + x[81] + x[99] + x[179] + x[182] + x[188] + x[206] + x[251] + x[254]
   + x[260] + x[278] + x[377] + x[19] + x[100] + x[109] + x[112] + x[127]
   + x[246] + x[255] + x[258] + x[273] + x[318] + x[327] + x[330] + x[345]
   + x[354] + x[20] + x[101] + x[115] + x[118] + x[130] + x[174] + x[261]
   + x[264] + x[276] + x[282] + x[333] + x[336] + x[348] + x[357] + x[21]
   + x[102] + x[121] + x[124] + x[133] + x[138] + x[210] + x[267] + x[270]
   + x[279] + x[339] + x[342] + x[351] + x[360] + x[22] + x[103] + x[116]
   + x[122] + x[128] + x[189] + x[195] + x[201] + x[249] + x[297] + x[303]
   + x[309] + x[321] + x[363] + x[23] + x[104] + x[110] + x[125] + x[131]
   + x[177] + x[183] + x[198] + x[204] + x[285] + x[291] + x[306] + x[312]
   + x[366] + x[24] + x[105] + x[113] + x[119] + x[134] + x[141] + x[186]
   + x[192] + x[207] + x[213] + x[294] + x[300] + x[315] + x[369] + x[25]
   + x[106] + x[120] + x[126] + x[129] + x[156] + x[162] + x[165] + x[228]
   + x[234] + x[237] + x[252] + x[324] + x[372] + x[26] + x[107] + x[114]
   + x[123] + x[132] + x[150] + x[159] + x[168] + x[180] + x[222] + x[231]
   + x[240] + x[288] + x[375] + x[27] + x[108] + x[111] + x[117] + x[135]
   + x[144] + x[147] + x[153] + x[171] + x[216] + x[219] + x[225] + x[243]
   + x[378]
Subject To
 edge: x[1] + x[28] <= 1
 edge: x[1] + x[37] <= 1
 edge: x[1] + x[40] <= 1
 edge: x[1] + x[55] <= 1
 edge: x[1] + x[136] <= 1
 edge: x[1] + x[145] <= 1
 edge: x[1] + x[148] <= 1
 edge: x[1] + x[163] <= 1
 edge: x[1] + x[172] <= 1
 edge: x[1] + x[181] <= 1
 edge: x[1] + x[184] <= 1
 edge: x[1] + x[199] <= 1
 edge: x[1] + x[352] <= 1
 edge: x[28] + x[29] <= 1
 edge: x[28] + x[30] <= 1
 edge: x[37] + x[38] <= 1
 edge: x[37] + x[39] <= 1
 edge: x[40] + x[41] <= 1
 edge: x[40] + x[42] <= 1
 edge: x[55] + x[56] <= 1
 edge: x[55] + x[57] <= 1
 edge: x[136] + x[137] <= 1
 edge: x[136] + x[138] <= 1
 edge: x[145] + x[146] <= 1
 edge: x[145] + x[147] <= 1
 edge: x[148] + x[149] <= 1
 edge: x[148] + x[150] <= 1
 edge: x[163] + x[164] <= 1
 edge: x[163] + x[165] <= 1
 edge: x[172] + x[173] <= 1
 edge: x[172] + x[174] <= 1
 edge: x[181] + x[182] <= 1
 edge: x[181] + x[183] <= 1
 edge: x[184] + x[185] <= 1
 edge: x[184] + x[186] <= 1
 edge: x[199] + x[200] <= 1
 edge: x[199] + x[201] <= 1
 edge: x[352] + x[353] <= 1
 edge: x[352] + x[354] <= 1
 edge: x[2] + x[29] <= 1
 edge: x[2] + x[43] <= 1
 edge: x[2] + x[46] <= 1
 edge: x[2] + x[58] <= 1
 edge: x[2] + x[151] <= 1
 edge: x[2] + x[154] <= 1
 edge: x[2] + x[166] <= 1
 edge: x[2] + x[187] <= 1
 edge: x[2] + x[190] <= 1
 edge: x[2] + x[202] <= 1
 edge: x[2] + x[208] <= 1
 edge: x[2] + x[244] <= 1
 edge: x[2] + x[355] <= 1
 edge: x[29] + x[30] <= 1
 edge: x[43] + x[44] <= 1
 edge: x[43] + x[45] <= 1
 edge: x[46] + x[47] <= 1
 edge: x[46] + x[48] <= 1
 edge: x[58] + x[59] <= 1
 edge: x[58] + x[60] <= 1
 edge: x[151] + x[152] <= 1
 edge: x[151] + x[153] <= 1
 edge: x[154] + x[155] <= 1
 edge: x[154] + x[156] <= 1
 edge: x[166] + x[167] <= 1
 edge: x[166] + x[168] <= 1
 edge: x[187] + x[188] <= 1
 edge: x[187] + x[189] <= 1
 edge: x[190] + x[191] <= 1
 edge: x[190] + x[192] <= 1
 edge: x[202] + x[203] <= 1
 edge: x[202] + x[204] <= 1
 edge: x[208] + x[209] <= 1
 edge: x[208] + x[210] <= 1
 edge: x[244] + x[245] <= 1
 edge: x[244] + x[246] <= 1
 edge: x[355] + x[356] <= 1
 edge: x[355] + x[357] <= 1
 edge: x[3] + x[30] <= 1
 edge: x[3] + x[49] <= 1
 edge: x[3] + x[52] <= 1
 edge: x[3] + x[61] <= 1
 edge: x[3] + x[157] <= 1
 edge: x[3] + x[160] <= 1
 edge: x[3] + x[169] <= 1
 edge: x[3] + x[193] <= 1
 edge: x[3] + x[196] <= 1
 edge: x[3] + x[205] <= 1
 edge: x[3] + x[280] <= 1
 edge: x[3] + x[316] <= 1
 edge: x[3] + x[358] <= 1
 edge: x[49] + x[50] <= 1
 edge: x[49] + x[51] <= 1
 edge: x[52] + x[53] <= 1
 edge: x[52] + x[54] <= 1
 edge: x[61] + x[62] <= 1
 edge: x[61] + x[63] <= 1
 edge: x[157] + x[158] <= 1
 edge: x[157] + x[159] <= 1
 edge: x[160] + x[161] <= 1
 edge: x[160] + x[162] <= 1
 edge: x[169] + x[170] <= 1
 edge: x[169] + x[171] <= 1
 edge: x[193] + x[194] <= 1
 edge: x[193] + x[195] <= 1
 edge: x[196] + x[197] <= 1
 edge: x[196] + x[198] <= 1
 edge: x[205] + x[206] <= 1
 edge: x[205] + x[207] <= 1
 edge: x[280] + x[281] <= 1
 edge: x[280] + x[282] <= 1
 edge: x[316] + x[317] <= 1
 edge: x[316] + x[318] <= 1
 edge: x[358] + x[359] <= 1
 edge: x[358] + x[360] <= 1
 edge: x[4] + x[31] <= 1
 edge: x[4] + x[44] <= 1
 edge: x[4] + x[50] <= 1
 edge: x[4] + x[56] <= 1
 edge: x[4] + x[139] <= 1
 edge: x[4] + x[175] <= 1
 edge: x[4] + x[223] <= 1
 edge: x[4] + x[229] <= 1
 edge: x[4] + x[235] <= 1
 edge: x[4] + x[259] <= 1
 edge: x[4] + x[265] <= 1
 edge: x[4] + x[271] <= 1
 edge: x[4] + x[361] <= 1
 edge: x[31] + x[32] <= 1
 edge: x[31] + x[33] <= 1
 edge: x[44] + x[45] <= 1
 edge: x[50] + x[51] <= 1
 edge: x[56] + x[57] <= 1
 edge: x[139] + x[140] <= 1
 edge: x[139] + x[141] <= 1
 edge: x[175] + x[176] <= 1
 edge: x[175] + x[177] <= 1
 edge: x[223] + x[224] <= 1
 edge: x[223] + x[225] <= 1
 edge: x[229] + x[230] <= 1
 edge: x[229] + x[231] <= 1
 edge: x[235] + x[236] <= 1
 edge: x[235] + x[237] <= 1
 edge: x[259] + x[260] <= 1
 edge: x[259] + x[261] <= 1
 edge: x[265] + x[266] <= 1
 edge: x[265] + x[267] <= 1
 edge: x[271] + x[272] <= 1
 edge: x[271] + x[273] <= 1
 edge: x[361] + x[362] <= 1
 edge: x[361] + x[363] <= 1
 edge: x[5] + x[32] <= 1
 edge: x[5] + x[38] <= 1
 edge: x[5] + x[53] <= 1
 edge: x[5] + x[59] <= 1
 edge: x[5] + x[211] <= 1
 edge: x[5] + x[217] <= 1
 edge: x[5] + x[232] <= 1
 edge: x[5] + x[238] <= 1
 edge: x[5] + x[247] <= 1
 edge: x[5] + x[253] <= 1
 edge: x[5] + x[268] <= 1
 edge: x[5] + x[274] <= 1
 edge: x[5] + x[364] <= 1
 edge: x[32] + x[33] <= 1
 edge: x[38] + x[39] <= 1
 edge: x[53] + x[54] <= 1
 edge: x[59] + x[60] <= 1
 edge: x[211] + x[212] <= 1
 edge: x[211] + x[213] <= 1
 edge: x[217] + x[218] <= 1
 edge: x[217] + x[219] <= 1
 edge: x[232] + x[233] <= 1
 edge: x[232] + x[234] <= 1
 edge: x[238] + x[239] <= 1
 edge: x[238] + x[240] <= 1
 edge: x[247] + x[248] <= 1
 edge: x[247] + x[249] <= 1
 edge: x[253] + x[254] <= 1
 edge: x[253] + x[255] <= 1
 edge: x[268] + x[269] <= 1
 edge: x[268] + x[270] <= 1
 edge: x[274] + x[275] <= 1
 edge: x[274] + x[276] <= 1
 edge: x[364] + x[365] <= 1
 edge: x[364] + x[366] <= 1
 edge: x[6] + x[33] <= 1
 edge: x[6] + x[41] <= 1
 edge: x[6] + x[47] <= 1
 edge: x[6] + x[62] <= 1
 edge: x[6] + x[220] <= 1
 edge: x[6] + x[226] <= 1
 edge: x[6] + x[241] <= 1
 edge: x[6] + x[256] <= 1
 edge: x[6] + x[262] <= 1
 edge: x[6] + x[277] <= 1
 edge: x[6] + x[283] <= 1
 edge: x[6] + x[319] <= 1
 edge: x[6] + x[367] <= 1
 edge: x[41] + x[42] <= 1
 edge: x[47] + x[48] <= 1
 edge: x[62] + x[63] <= 1
 edge: x[220] + x[221] <= 1
 edge: x[220] + x[222] <= 1
 edge: x[226] + x[227] <= 1
 edge: x[226] + x[228] <= 1
 edge: x[241] + x[242] <= 1
 edge: x[241] + x[243] <= 1
 edge: x[256] + x[257] <= 1
 edge: x[256] + x[258] <= 1
 edge: x[262] + x[263] <= 1
 edge: x[262] + x[264] <= 1
 edge: x[277] + x[278] <= 1
 edge: x[277] + x[279] <= 1
 edge: x[283] + x[284] <= 1
 edge: x[283] + x[285] <= 1
 edge: x[319] + x[320] <= 1
 edge: x[319] + x[321] <= 1
 edge: x[367] + x[368] <= 1
 edge: x[367] + x[369] <= 1
 edge: x[7] + x[34] <= 1
 edge: x[7] + x[48] <= 1
 edge: x[7] + x[54] <= 1
 edge: x[7] + x[57] <= 1
 edge: x[7] + x[142] <= 1
 edge: x[7] + x[178] <= 1
 edge: x[7] + x[298] <= 1
 edge: x[7] + x[304] <= 1
 edge: x[7] + x[307] <= 1
 edge: x[7] + x[334] <= 1
 edge: x[7] + x[340] <= 1
 edge: x[7] + x[343] <= 1
 edge: x[7] + x[370] <= 1
 edge: x[34] + x[35] <= 1
 edge: x[34] + x[36] <= 1
 edge: x[142] + x[143] <= 1
 edge: x[142] + x[144] <= 1
 edge: x[178] + x[179] <= 1
 edge: x[178] + x[180] <= 1
 edge: x[298] + x[299] <= 1
 edge: x[298] + x[300] <= 1
 edge: x[304] + x[305] <= 1
 edge: x[304] + x[306] <= 1
 edge: x[307] + x[308] <= 1
 edge: x[307] + x[309] <= 1
 edge: x[334] + x[335] <= 1
 edge: x[334] + x[336] <= 1
 edge: x[340] + x[341] <= 1
 edge: x[340] + x[342] <= 1
 edge: x[343] + x[344] <= 1
 edge: x[343] + x[345] <= 1
 edge: x[370] + x[371] <= 1
 edge: x[370] + x[372] <= 1
 edge: x[8] + x[35] <= 1
 edge: x[8] + x[42] <= 1
 edge: x[8] + x[51] <= 1
 edge: x[8] + x[60] <= 1
 edge: x[8] + x[214] <= 1
 edge: x[8] + x[250] <= 1
 edge: x[8] + x[292] <= 1
 edge: x[8] + x[301] <= 1
 edge: x[8] + x[310] <= 1
 edge: x[8] + x[328] <= 1
 edge: x[8] + x[337] <= 1
 edge: x[8] + x[346] <= 1
 edge: x[8] + x[373] <= 1
 edge: x[35] + x[36] <= 1
 edge: x[214] + x[215] <= 1
 edge: x[214] + x[216] <= 1
 edge: x[250] + x[251] <= 1
 edge: x[250] + x[252] <= 1
 edge: x[292] + x[293] <= 1
 edge: x[292] + x[294] <= 1
 edge: x[301] + x[302] <= 1
 edge: x[301] + x[303] <= 1
 edge: x[310] + x[311] <= 1
 edge: x[310] + x[312] <= 1
 edge: x[328] + x[329] <= 1
 edge: x[328] + x[330] <= 1
 edge: x[337] + x[338] <= 1
 edge: x[337] + x[339] <= 1
 edge: x[346] + x[347] <= 1
 edge: x[346] + x[348] <= 1
 edge: x[373] + x[374] <= 1
 edge: x[373] + x[375] <= 1
 edge: x[9] + x[36] <= 1
 edge: x[9] + x[39] <= 1
 edge: x[9] + x[45] <= 1
 edge: x[9] + x[63] <= 1
 edge: x[9] + x[286] <= 1
 edge: x[9] + x[289] <= 1
 edge: x[9] + x[295] <= 1
 edge: x[9] + x[313] <= 1
 edge: x[9] + x[322] <= 1
 edge: x[9] + x[325] <= 1
 edge: x[9] + x[331] <= 1
 edge: x[9] + x[349] <= 1
 edge: x[9] + x[376] <= 1
 edge: x[286] + x[287] <= 1
 edge: x[286] + x[288] <= 1
 edge: x[289] + x[290] <= 1
 edge: x[289] + x[291] <= 1
 edge: x[295] + x[296] <= 1
 edge: x[295] + x[297] <= 1
 edge: x[313] + x[314] <= 1
 edge: x[313] + x[315] <= 1
 edge: x[322] + x[323] <= 1
 edge: x[322] + x[324] <= 1
 edge: x[325] + x[326] <= 1
 edge: x[325] + x[327] <= 1
 edge: x[331] + x[332] <= 1
 edge: x[331] + x[333] <= 1
 edge: x[349] + x[350] <= 1
 edge: x[349] + x[351] <= 1
 edge: x[376] + x[377] <= 1
 edge: x[376] + x[378] <= 1
 edge: x[10] + x[64] <= 1
 edge: x[10] + x[73] <= 1
 edge: x[10] + x[76] <= 1
 edge: x[10] + x[91] <= 1
 edge: x[10] + x[209] <= 1
 edge: x[10] + x[218] <= 1
 edge: x[10] + x[221] <= 1
 edge: x[10] + x[236] <= 1
 edge: x[10] + x[281] <= 1
 edge: x[10] + x[290] <= 1
 edge: x[10] + x[293] <= 1
 edge: x[10] + x[308] <= 1
 edge: x[10] + x[353] <= 1
 edge: x[64] + x[65] <= 1
 edge: x[64] + x[66] <= 1
 edge: x[73] + x[74] <= 1
 edge: x[73] + x[75] <= 1
 edge: x[76] + x[77] <= 1
 edge: x[76] + x[78] <= 1
 edge: x[91] + x[92] <= 1
 edge: x[91] + x[93] <= 1
 edge: x[209] + x[210] <= 1
 edge: x[218] + x[219] <= 1
 edge: x[221] + x[222] <= 1
 edge: x[236] + x[237] <= 1
 edge: x[281] + x[282] <= 1
 edge: x[290] + x[291] <= 1
 edge: x[293] + x[294] <= 1
 edge: x[308] + x[309] <= 1
 edge: x[353] + x[354] <= 1
 edge: x[11] + x[65] <= 1
 edge: x[11] + x[79] <= 1
 edge: x[11] + x[82] <= 1
 edge: x[11] + x[94] <= 1
 edge: x[11] + x[137] <= 1
 edge: x[11] + x[224] <= 1
 edge: x[11] + x[227] <= 1
 edge: x[11] + x[239] <= 1
 edge: x[11] + x[296] <= 1
 edge: x[11] + x[299] <= 1
 edge: x[11] + x[311] <= 1
 edge: x[11] + x[317] <= 1
 edge: x[11] + x[356] <= 1
 edge: x[65] + x[66] <= 1
 edge: x[79] + x[80] <= 1
 edge: x[79] + x[81] <= 1
 edge: x[82] + x[83] <= 1
 edge: x[82] + x[84] <= 1
 edge: x[94] + x[95] <= 1
 edge: x[94] + x[96] <= 1
 edge: x[137] + x[138] <= 1
 edge: x[224] + x[225] <= 1
 edge: x[227] + x[228] <= 1
 edge: x[239] + x[240] <= 1
 edge: x[296] + x[297] <= 1
 edge: x[299] + x[300] <= 1
 edge: x[311] + x[312] <= 1
 edge: x[317] + x[318] <= 1
 edge: x[356] + x[357] <= 1
 edge: x[12] + x[66] <= 1
 edge: x[12] + x[85] <= 1
 edge: x[12] + x[88] <= 1
 edge: x[12] + x[97] <= 1
 edge: x[12] + x[173] <= 1
 edge: x[12] + x[230] <= 1
 edge: x[12] + x[233] <= 1
 edge: x[12] + x[242] <= 1
 edge: x[12] + x[245] <= 1
 edge: x[12] + x[302] <= 1
 edge: x[12] + x[305] <= 1
 edge: x[12] + x[314] <= 1
 edge: x[12] + x[359] <= 1
 edge: x[85] + x[86] <= 1
 edge: x[85] + x[87] <= 1
 edge: x[88] + x[89] <= 1
 edge: x[88] + x[90] <= 1
 edge: x[97] + x[98] <= 1
 edge: x[97] + x[99] <= 1
 edge: x[173] + x[174] <= 1
 edge: x[230] + x[231] <= 1
 edge: x[233] + x[234] <= 1
 edge: x[242] + x[243] <= 1
 edge: x[245] + x[246] <= 1
 edge: x[302] + x[303] <= 1
 edge: x[305] + x[306] <= 1
 edge: x[314] + x[315] <= 1
 edge: x[359] + x[360] <= 1
 edge: x[13] + x[67] <= 1
 edge: x[13] + x[80] <= 1
 edge: x[13] + x[86] <= 1
 edge: x[13] + x[92] <= 1
 edge: x[13] + x[152] <= 1
 edge: x[13] + x[158] <= 1
 edge: x[13] + x[164] <= 1
 edge: x[13] + x[212] <= 1
 edge: x[13] + x[284] <= 1
 edge: x[13] + x[332] <= 1
 edge: x[13] + x[338] <= 1
 edge: x[13] + x[344] <= 1
 edge: x[13] + x[362] <= 1
 edge: x[67] + x[68] <= 1
 edge: x[67] + x[69] <= 1
 edge: x[80] + x[81] <= 1
 edge: x[86] + x[87] <= 1
 edge: x[92] + x[93] <= 1
 edge: x[152] + x[153] <= 1
 edge: x[158] + x[159] <= 1
 edge: x[164] + x[165] <= 1
 edge: x[212] + x[213] <= 1
 edge: x[284] + x[285] <= 1
 edge: x[332] + x[333] <= 1
 edge: x[338] + x[339] <= 1
 edge: x[344] + x[345] <= 1
 edge: x[362] + x[363] <= 1
 edge: x[14] + x[68] <= 1
 edge: x[14] + x[74] <= 1
 edge: x[14] + x[89] <= 1
 edge: x[14] + x[95] <= 1
 edge: x[14] + x[140] <= 1
 edge: x[14] + x[146] <= 1
 edge: x[14] + x[161] <= 1
 edge: x[14] + x[167] <= 1
 edge: x[14] + x[320] <= 1
 edge: x[14] + x[326] <= 1
 edge: x[14] + x[341] <= 1
 edge: x[14] + x[347] <= 1
 edge: x[14] + x[365] <= 1
 edge: x[68] + x[69] <= 1
 edge: x[74] + x[75] <= 1
 edge: x[89] + x[90] <= 1
 edge: x[95] + x[96] <= 1
 edge: x[140] + x[141] <= 1
 edge: x[146] + x[147] <= 1
 edge: x[161] + x[162] <= 1
 edge: x[167] + x[168] <= 1
 edge: x[320] + x[321] <= 1
 edge: x[326] + x[327] <= 1
 edge: x[341] + x[342] <= 1
 edge: x[347] + x[348] <= 1
 edge: x[365] + x[366] <= 1
 edge: x[15] + x[69] <= 1
 edge: x[15] + x[77] <= 1
 edge: x[15] + x[83] <= 1
 edge: x[15] + x[98] <= 1
 edge: x[15] + x[149] <= 1
 edge: x[15] + x[155] <= 1
 edge: x[15] + x[170] <= 1
 edge: x[15] + x[176] <= 1
 edge: x[15] + x[248] <= 1
 edge: x[15] + x[329] <= 1
 edge: x[15] + x[335] <= 1
 edge: x[15] + x[350] <= 1
 edge: x[15] + x[368] <= 1
 edge: x[77] + x[78] <= 1
 edge: x[83] + x[84] <= 1
 edge: x[98] + x[99] <= 1
 edge: x[149] + x[150] <= 1
 edge: x[155] + x[156] <= 1
 edge: x[170] + x[171] <= 1
 edge: x[176] + x[177] <= 1
 edge: x[248] + x[249] <= 1
 edge: x[329] + x[330] <= 1
 edge: x[335] + x[336] <= 1
 edge: x[350] + x[351] <= 1
 edge: x[368] + x[369] <= 1
 edge: x[16] + x[70] <= 1
 edge: x[16] + x[84] <= 1
 edge: x[16] + x[90] <= 1
 edge: x[16] + x[93] <= 1
 edge: x[16] + x[191] <= 1
 edge: x[16] + x[197] <= 1
 edge: x[16] + x[200] <= 1
 edge: x[16] + x[215] <= 1
 edge: x[16] + x[263] <= 1
 edge: x[16] + x[269] <= 1
 edge: x[16] + x[272] <= 1
 edge: x[16] + x[287] <= 1
 edge: x[16] + x[371] <= 1
 edge: x[70] + x[71] <= 1
 edge: x[70] + x[72] <= 1
 edge: x[191] + x[192] <= 1
 edge: x[197] + x[198] <= 1
 edge: x[200] + x[201] <= 1
 edge: x[215] + x[216] <= 1
 edge: x[263] + x[264] <= 1
 edge: x[269] + x[270] <= 1
 edge: x[272] + x[273] <= 1
 edge: x[287] + x[288] <= 1
 edge: x[371] + x[372] <= 1
 edge: x[17] + x[71] <= 1
 edge: x[17] + x[78] <= 1
 edge: x[17] + x[87] <= 1
 edge: x[17] + x[96] <= 1
 edge: x[17] + x[143] <= 1
 edge: x[17] + x[185] <= 1
 edge: x[17] + x[194] <= 1
 edge: x[17] + x[203] <= 1
 edge: x[17] + x[257] <= 1
 edge: x[17] + x[266] <= 1
 edge: x[17] + x[275] <= 1
 edge: x[17] + x[323] <= 1
 edge: x[17] + x[374] <= 1
 edge: x[71] + x[72] <= 1
 edge: x[143] + x[144] <= 1
 edge: x[185] + x[186] <= 1
 edge: x[194] + x[195] <= 1
 edge: x[203] + x[204] <= 1
 edge: x[257] + x[258] <= 1
 edge: x[266] + x[267] <= 1
 edge: x[275] + x[276] <= 1
 edge: x[323] + x[324] <= 1
 edge: x[374] + x[375] <= 1
 edge: x[18] + x[72] <= 1
 edge: x[18] + x[75] <= 1
 edge: x[18] + x[81] <= 1
 edge: x[18] + x[99] <= 1
 edge: x[18] + x[179] <= 1
 edge: x[18] + x[182] <= 1
 edge: x[18] + x[188] <= 1
 edge: x[18] + x[206] <= 1
 edge: x[18] + x[251] <= 1
 edge: x[18] + x[254] <= 1
 edge: x[18] + x[260] <= 1
 edge: x[18] + x[278] <= 1
 edge: x[18] + x[377] <= 1
 edge: x[179] + x[180] <= 1
 edge: x[182] + x[183] <= 1
 edge: x[188] + x[189] <= 1
 edge: x[206] + x[207] <= 1
 edge: x[251] + x[252] <= 1
 edge: x[254] + x[255] <= 1
 edge: x[260] + x[261] <= 1
 edge: x[278] + x[279] <= 1
 edge: x[377] + x[378] <= 1
 edge: x[19] + x[100] <= 1
 edge: x[19] + x[109] <= 1
 edge: x[19] + x[112] <= 1
 edge: x[19] + x[127] <= 1
 edge: x[19] + x[246] <= 1
 edge: x[19] + x[255] <= 1
 edge: x[19] + x[258] <= 1
 edge: x[19] + x[273] <= 1
 edge: x[19] + x[318] <= 1
 edge: x[19] + x[327] <= 1
 edge: x[19] + x[330] <= 1
 edge: x[19] + x[345] <= 1
 edge: x[19] + x[354] <= 1
 edge: x[100] + x[101] <= 1
 edge: x[100] + x[102] <= 1
 edge: x[109] + x[110] <= 1
 edge: x[109] + x[111] <= 1
 edge: x[112] + x[113] <= 1
 edge: x[112] + x[114] <= 1
 edge: x[127] + x[128] <= 1
 edge: x[127] + x[129] <= 1
 edge: x[20] + x[101] <= 1
 edge: x[20] + x[115] <= 1
 edge: x[20] + x[118] <= 1
 edge: x[20] + x[130] <= 1
 edge: x[20] + x[174] <= 1
 edge: x[20] + x[261] <= 1
 edge: x[20] + x[264] <= 1
 edge: x[20] + x[276] <= 1
 edge: x[20] + x[282] <= 1
 edge: x[20] + x[333] <= 1
 edge: x[20] + x[336] <= 1
 edge: x[20] + x[348] <= 1
 edge: x[20] + x[357] <= 1
 edge: x[101] + x[102] <= 1
 edge: x[115] + x[116] <= 1
 edge: x[115] + x[117] <= 1
 edge: x[118] + x[119] <= 1
 edge: x[118] + x[120] <= 1
 edge: x[130] + x[131] <= 1
 edge: x[130] + x[132] <= 1
 edge: x[21] + x[102] <= 1
 edge: x[21] + x[121] <= 1
 edge: x[21] + x[124] <= 1
 edge: x[21] + x[133] <= 1
 edge: x[21] + x[138] <= 1
 edge: x[21] + x[210] <= 1
 edge: x[21] + x[267] <= 1
 edge: x[21] + x[270] <= 1
 edge: x[21] + x[279] <= 1
 edge: x[21] + x[339] <= 1
 edge: x[21] + x[342] <= 1
 edge: x[21] + x[351] <= 1
 edge: x[21] + x[360] <= 1
 edge: x[121] + x[122] <= 1
 edge: x[121] + x[123] <= 1
 edge: x[124] + x[125] <= 1
 edge: x[124] + x[126] <= 1
 edge: x[133] + x[134] <= 1
 edge: x[133] + x[135] <= 1
 edge: x[22] + x[103] <= 1
 edge: x[22] + x[116] <= 1
 edge: x[22] + x[122] <= 1
 edge: x[22] + x[128] <= 1
 edge: x[22] + x[189] <= 1
 edge: x[22] + x[195] <= 1
 edge: x[22] + x[201] <= 1
 edge: x[22] + x[249] <= 1
 edge: x[22] + x[297] <= 1
 edge: x[22] + x[303] <= 1
 edge: x[22] + x[309] <= 1
 edge: x[22] + x[321] <= 1
 edge: x[22] + x[363] <= 1
 edge: x[103] + x[104] <= 1
 edge: x[103] + x[105] <= 1
 edge: x[116] + x[117] <= 1
 edge: x[122] + x[123] <= 1
 edge: x[128] + x[129] <= 1
 edge: x[23] + x[104] <= 1
 edge: x[23] + x[110] <= 1
 edge: x[23] + x[125] <= 1
 edge: x[23] + x[131] <= 1
 edge: x[23] + x[177] <= 1
 edge: x[23] + x[183] <= 1
 edge: x[23] + x[198] <= 1
 edge: x[23] + x[204] <= 1
 edge: x[23] + x[285] <= 1
 edge: x[23] + x[291] <= 1
 edge: x[23] + x[306] <= 1
 edge: x[23] + x[312] <= 1
 edge: x[23] + x[366] <= 1
 edge: x[104] + x[105] <= 1
 edge: x[110] + x[111] <= 1
 edge: x[125] + x[126] <= 1
 edge: x[131] + x[132] <= 1
 edge: x[24] + x[105] <= 1
 edge: x[24] + x[113] <= 1
 edge: x[24] + x[119] <= 1
 edge: x[24] + x[134] <= 1
 edge: x[24] + x[141] <= 1
 edge: x[24] + x[186] <= 1
 edge: x[24] + x[192] <= 1
 edge: x[24] + x[207] <= 1
 edge: x[24] + x[213] <= 1
 edge: x[24] + x[294] <= 1
 edge: x[24] + x[300] <= 1
 edge: x[24] + x[315] <= 1
 edge: x[24] + x[369] <= 1
 edge: x[113] + x[114] <= 1
 edge: x[119] + x[120] <= 1
 edge: x[134] + x[135] <= 1
 edge: x[25] + x[106] <= 1
 edge: x[25] + x[120] <= 1
 edge: x[25] + x[126] <= 1
 edge: x[25] + x[129] <= 1
 edge: x[25] + x[156] <= 1
 edge: x[25] + x[162] <= 1
 edge: x[25] + x[165] <= 1
 edge: x[25] + x[228] <= 1
 edge: x[25] + x[234] <= 1
 edge: x[25] + x[237] <= 1
 edge: x[25] + x[252] <= 1
 edge: x[25] + x[324] <= 1
 edge: x[25] + x[372] <= 1
 edge: x[106] + x[107] <= 1
 edge: x[106] + x[108] <= 1
 edge: x[26] + x[107] <= 1
 edge: x[26] + x[114] <= 1
 edge: x[26] + x[123] <= 1
 edge: x[26] + x[132] <= 1
 edge: x[26] + x[150] <= 1
 edge: x[26] + x[159] <= 1
 edge: x[26] + x[168] <= 1
 edge: x[26] + x[180] <= 1
 edge: x[26] + x[222] <= 1
 edge: x[26] + x[231] <= 1
 edge: x[26] + x[240] <= 1
 edge: x[26] + x[288] <= 1
 edge: x[26] + x[375] <= 1
 edge: x[107] + x[108] <= 1
 edge: x[27] + x[108] <= 1
 edge: x[27] + x[111] <= 1
 edge: x[27] + x[117] <= 1
 edge: x[27] + x[135] <= 1
 edge: x[27] + x[144] <= 1
 edge: x[27] + x[147] <= 1
 edge: x[27] + x[153] <= 1
 edge: x[27] + x[171] <= 1
 edge: x[27] + x[216] <= 1
 edge: x[27] + x[219] <= 1
 edge: x[27] + x[225] <= 1
 edge: x[27] + x[243] <= 1
 edge: x[27] + x[378] <= 1
Bounds
Binaries
 x[1] x[28] x[37] x[40] x[55] x[136] x[145] x[148] x[163] x[172] x[181]
 x[184] x[199] x[352] x[2] x[29] x[43] x[46] x[58] x[151] x[154] x[166]
 x[187] x[190] x[202] x[208] x[244] x[355] x[3] x[30] x[49] x[52] x[61]
 x[157] x[160] x[169] x[193] x[196] x[205] x[280] x[316] x[358] x[4] x[31]
 x[44] x[50] x[56] x[139] x[175] x[223] x[229] x[235] x[259] x[265] x[271]
 x[361] x[5] x[32] x[38] x[53] x[59] x[211] x[217] x[232] x[238] x[247]
 x[253] x[268] x[274] x[364] x[6] x[33] x[41] x[47] x[62] x[220] x[226]
 x[241] x[256] x[262] x[277] x[283] x[319] x[367] x[7] x[34] x[48] x[54]
 x[57] x[142] x[178] x[298] x[304] x[307] x[334] x[340] x[343] x[370] x[8]
 x[35] x[42] x[51] x[60] x[214] x[250] x[292] x[301] x[310] x[328] x[337]
 x[346] x[373] x[9] x[36] x[39] x[45] x[63] x[286] x[289] x[295] x[313]
 x[322] x[325] x[331] x[349] x[376] x[10] x[64] x[73] x[76] x[91] x[209]
 x[218] x[221] x[236] x[281] x[290] x[293] x[308] x[353] x[11] x[65] x[79]
 x[82] x[94] x[137] x[224] x[227] x[239] x[296] x[299] x[311] x[317] x[356]
 x[12] x[66] x[85] x[88] x[97] x[173] x[230] x[233] x[242] x[245] x[302]
 x[305] x[314] x[359] x[13] x[67] x[80] x[86] x[92] x[152] x[158] x[164]
 x[212] x[284] x[332] x[338] x[344] x[362] x[14] x[68] x[74] x[89] x[95]
 x[140] x[146] x[161] x[167] x[320] x[326] x[341] x[347] x[365] x[15] x[69]
 x[77] x[83] x[98] x[149] x[155] x[170] x[176] x[248] x[329] x[335] x[350]
 x[368] x[16] x[70] x[84] x[90] x[93] x[191] x[197] x[200] x[215] x[263]
 x[269] x[272] x[287] x[371] x[17] x[71] x[78] x[87] x[96] x[143] x[185]
 x[194] x[203] x[257] x[266] x[275] x[323] x[374] x[18] x[72] x[75] x[81]
 x[99] x[179] x[182] x[188] x[206] x[251] x[254] x[260] x[278] x[377] x[19]
 x[100] x[109] x[112] x[127] x[246] x[255] x[258] x[273] x[318] x[327]
 x[330] x[345] x[354] x[20] x[101] x[115] x[118] x[130] x[174] x[261]
 x[264] x[276] x[282] x[333] x[336] x[348] x[357] x[21] x[102] x[121]
 x[124] x[133] x[138] x[210] x[267] x[270] x[279] x[339] x[342] x[351]
 x[360] x[22] x[103] x[116] x[122] x[128] x[189] x[195] x[201] x[249]
 x[297] x[303] x[309] x[321] x[363] x[23] x[104] x[110] x[125] x[131]
 x[177] x[183] x[198] x[204] x[285] x[291] x[306] x[312] x[366] x[24]
 x[105] x[113] x[119] x[134] x[141] x[186] x[192] x[207] x[213] x[294]
 x[300] x[315] x[369] x[25] x[106] x[120] x[126] x[129] x[156] x[162]
 x[165] x[228] x[234] x[237] x[252] x[324] x[372] x[26] x[107] x[114]
 x[123] x[132] x[150] x[159] x[168] x[180] x[222] x[231] x[240] x[288]
 x[375] x[27] x[108] x[111] x[117] x[135] x[144] x[147] x[153] x[171]
 x[216] x[219] x[225] x[243] x[378]
End
